24 24
2 4
1 2
9 2
3 1
1 9
10 8
10 6
5 10
4 3
9 5
4 10
3 9
4 6
8 2
5 8
4 9
6 8
10 6
3 7
6 3
3 10
7 7
9 2
5 1
11 16 74
20 15 59
20 13 91
14 17 99
14 20 88
12 14 65
12 12 57
20 19 86
17 18 81
16 17 53
20 19 72
16 14 93
20 14 92
10 19 51
10 11 70
14 16 63
20 14 63
12 19 83
10 10 89
13 11 56
10 17 95
12 11 84
10 16 52
17 18 56
